(set-logic HORN)
(set-info :source |
  Benchmark: test_safe_2019/termination/indirect.3.ml
  Generated by MoCHi
|)
(set-info :status unknown)
(declare-fun |fail_5362[27:0]| ( Int) Bool)
(declare-fun |f[8:4][11:0][17:3]| ( Bool  Int  Int  Int  Bool  Int  Int  Int) Bool)
(declare-fun |f[8:3]| ( Bool  Int  Int  Int) Bool)
(assert (not (exists ((x0 Int)) (|fail_5362[27:0]| x0))))
(assert (forall ((x0 Int)(var9 Int)(x4 Int)(x13 Bool)(x14 Int)(x15 Int)(x3 Int)(x5 Int)) (=> (and (|f[8:3]| x13 x14 x15 var9) (and (|f[8:4][11:0][17:3]| x13 x14 x15 var9 true x3 x4 x5) (and (>= var9 1) (or (<= (+ 1 x4) var9) (<= var9 0))))) (|fail_5362[27:0]| x0))))
(assert (forall ((x5 Bool)(x6 Int)(x7 Int)(x8 Int)(x1 Bool)(x2 Int)(x3 Int)(x4 Int)) (=> (and (|f[8:3]| x5 x6 x7 x8) (and (= x6 0) (and (= x7 0) (and (= x2 x6) (and (= x3 x7) (and (not x5) (not x1))))))) (|f[8:4][11:0][17:3]| x5 x6 x7 x8 x1 x2 x3 x4))))
(assert (forall ((x2 Bool)(x0 Int)(x1 Int)(x4 Int)) (=> (and (= x0 0) (and (= x1 0) (not x2))) (|f[8:3]| x2 x0 x1 x4))))
(check-sat)
(get-model)
(exit)
